NAME : portcgen-20-29
COMMENT : portcgen N=20, seed=29
TYPE : TSP
DIMENSION : 20
EDGE_WEIGHT_TYPE : EUC_2D
NODE_COORD_SECTION
1 -287897 -195934
2 -19116 511700
3 480496 -38017
4 256192 -93817
5 -151300 -105010
6 -264962 95256
7 -334171 -420404
8 -45236 -47640
9 67610 -125526
10 -306111 -305765
11 -356541 154472
12 241645 -71809
13 131680 416545
14 149544 103425
15 207246 366727
16 -24747 190019
17 -60586 -170365
18 -127684 -11348
19 -142462 60172
20 81253 155975
